certificates/rado_a5_c264_N52.drat
-52 0
48 0
-24 0
20 0
28 0
-44 0
-4 0
40 0
8 0
-16 0
-32 0
12 0
36 0
0
